Instance: E076-07s.dat
Class:  2
   75 --- number of customers (no depot)
   14 --- number of vehicles
  114 --- number of items
Capacity - height - width of vehicles
   220     40     20
Node - x - y - demand
    0    40.0    40.0     0.0
    1    22.0    22.0    18.0
    2    36.0    26.0    26.0
    3    21.0    45.0    11.0
    4    45.0    35.0    30.0
    5    55.0    20.0    21.0
    6    33.0    34.0    19.0
    7    50.0    50.0    15.0
    8    55.0    45.0    16.0
    9    26.0    59.0    29.0
   10    40.0    66.0    26.0
   11    55.0    65.0    37.0
   12    35.0    51.0    16.0
   13    62.0    35.0    12.0
   14    62.0    57.0    31.0
   15    62.0    24.0     8.0
   16    21.0    36.0    19.0
   17    33.0    44.0    20.0
   18     9.0    56.0    13.0
   19    62.0    48.0    15.0
   20    66.0    14.0    22.0
   21    44.0    13.0    28.0
   22    26.0    13.0    12.0
   23    11.0    28.0     6.0
   24     7.0    43.0    27.0
   25    17.0    64.0    14.0
   26    41.0    46.0    18.0
   27    55.0    34.0    17.0
   28    35.0    16.0    29.0
   29    52.0    26.0    13.0
   30    43.0    26.0    22.0
   31    31.0    76.0    25.0
   32    22.0    53.0    28.0
   33    26.0    29.0    27.0
   34    50.0    40.0    19.0
   35    55.0    50.0    10.0
   36    54.0    10.0    12.0
   37    60.0    15.0    14.0
   38    47.0    66.0    24.0
   39    30.0    60.0    16.0
   40    30.0    50.0    33.0
   41    12.0    17.0    15.0
   42    15.0    14.0    11.0
   43    16.0    19.0    18.0
   44    21.0    48.0    17.0
   45    50.0    30.0    21.0
   46    51.0    42.0    27.0
   47    50.0    15.0    19.0
   48    48.0    21.0    20.0
   49    12.0    38.0     5.0
   50    15.0    56.0    22.0
   51    29.0    39.0    12.0
   52    54.0    38.0    19.0
   53    55.0    57.0    22.0
   54    67.0    41.0    16.0
   55    10.0    70.0     7.0
   56     6.0    25.0    26.0
   57    65.0    27.0    14.0
   58    40.0    60.0    21.0
   59    70.0    64.0    24.0
   60    64.0     4.0    13.0
   61    36.0     6.0    15.0
   62    30.0    20.0    18.0
   63    20.0    30.0    11.0
   64    15.0     5.0    28.0
   65    50.0    70.0     9.0
   66    57.0    72.0    37.0
   67    45.0    42.0    30.0
   68    38.0    33.0    10.0
   69    50.0     4.0     8.0
   70    66.0     8.0    11.0
   71    59.0     5.0     3.0
   72    35.0    60.0     1.0
   73    27.0    24.0     6.0
   74    40.0    20.0    10.0
   75    40.0    37.0    20.0
Node - number of items - h - w for each item
    0   0
    1   1   30    3
    2   1   26    3
    3   2    8   14    6    9
    4   1    9    8
    5   2   15    6   13    6
    6   1   14    7
    7   2    4   12   14    8
    8   2    5   15   18    4
    9   2    5   11   21    3
   10   2    5   13   18    4
   11   1   18    2
   12   2    9    5   11    4
   13   2    5   13    6   10
   14   2    5   18    7   11
   15   2    7   18    8   13
   16   2    9    7   10    6
   17   2    6   18   30    3
   18   2    7   16   12    5
   19   1    4   10
   20   2   17    9   21    3
   21   2   13    8   27    3
   22   2   10    7   32    2
   23   1   23    3
   24   1   30    3
   25   1    6   17
   26   2    5   11    5    8
   27   1   14    7
   28   1    6   17
   29   2   12    5   25    3
   30   2   14    6   20    2
   31   1   17    4
   32   1   19    4
   33   2    7   13   14    5
   34   1    8    6
   35   2   33    4   17    3
   36   2    6   15   20   10
   37   1   15    8
   38   1    6   18
   39   2   19    9    9    6
   40   1    8   17
   41   1   14    7
   42   1    4   12
   43   1    9    7
   44   2   15    9   31    4
   45   2    6   12    5   10
   46   1   19   10
   47   1   17    7
   48   1   14    8
   49   2    7   10   26    3
   50   2    6   10   21    4
   51   2    5   18    6   11
   52   1   21    3
   53   1    6   11
   54   2    5   17   33    2
   55   2    7   12   20    5
   56   1    9    7
   57   2    7   14   16    8
   58   1   17    8
   59   1   24    3
   60   2    4   15   25    3
   61   2    5   12   11    8
   62   2    5   17   17    4
   63   1    8    7
   64   1   20    3
   65   1    7   16
   66   1    4   13
   67   2    7   10   27    4
   68   1   26    4
   69   2    8    9   36    2
   70   2    6    8   14    5
   71   2    6   17   12    6
   72   1    7   10
   73   1    5   11
   74   2   18    4   18    2
   75   1    8   18
